k = 40;
b = 20;
AtomicConstraints =  [|
1, 15|
	1, 16|
	1, 17|
	1, 18|
	1, 19|
	1, 20|
	2, 14|
	2, 34|
	2, 40|
	2, 32|
	2, 38|
	2, 23|
	2, 24|
	2, 25|
	2, 21|
	2, 28|
	2, 30|
	2, 22|
	2, 26|
	2, 27|
	2, 36|
	2, 29|
	2, 35|
	2, 37|
	2, 33|
	2, 39|
	2, 31|
	3, 6|
	3, 9|
	3, 10|
	3, 11|
	3, 12|
	3, 13|
	3, 14|
	3, 15|
	3, 16|
	3, 17|
	3, 18|
	3, 19|
	3, 20|
	3, 30|
	3, 36|
	3, 29|
	3, 35|
	3, 37|
	3, 33|
	3, 39|
	3, 31|
	4, 9|
	4, 10|
	4, 11|
	4, 12|
	4, 13|
	4, 14|
	4, 15|
	4, 16|
	4, 17|
	4, 18|
	4, 19|
	4, 20|
	4, 37|
	4, 33|
	4, 39|
	4, 31|
	5, 9|
	5, 10|
	5, 11|
	5, 12|
	5, 13|
	5, 14|
	5, 15|
	5, 16|
	5, 17|
	5, 18|
	5, 19|
	5, 20|
	6, 9|
	6, 10|
	6, 11|
	6, 12|
	6, 13|
	6, 14|
	6, 15|
	6, 16|
	6, 17|
	6, 18|
	6, 19|
	6, 20|
	6, 37|
	6, 33|
	6, 39|
	6, 31|
	7, 15|
	7, 16|
	7, 17|
	7, 18|
	7, 19|
	8, 2|
	8, 6|
	8, 9|
	8, 10|
	8, 11|
	8, 12|
	8, 13|
	8, 14|
	8, 15|
	8, 16|
	8, 17|
	8, 18|
	8, 19|
	8, 20|
	8, 34|
	8, 40|
	8, 32|
	8, 38|
	8, 23|
	8, 24|
	8, 25|
	8, 21|
	8, 28|
	8, 30|
	8, 22|
	8, 26|
	8, 27|
	8, 36|
	8, 29|
	8, 35|
	8, 37|
	8, 33|
	8, 39|
	8, 31|
	9, 10|
	9, 12|
	11, 10|
	11, 12|
	11, 14|
	13, 10|
	13, 12|
	13, 14|
	15, 16|
	17, 16|
	17, 18|
	19, 16|
	19, 18|
	19, 20|
	34, 40|
	34, 38|
	34, 35|
	32, 40|
	32, 38|
	23, 38|
	23, 24|
	23, 25|
	23, 21|
	23, 22|
	23, 26|
	23, 27|
	24, 25|
	24, 21|
	24, 26|
	24, 27|
	25, 21|
	25, 27|
	28, 24|
	28, 25|
	28, 21|
	28, 22|
	28, 26|
	28, 27|
	22, 25|
	22, 21|
	22, 26|
	22, 27|
	26, 21|
	26, 27|
	30, 36|
	30, 35|
	29, 40|
	29, 36|
	29, 35|
	33, 37|
	33, 39|
	31, 37|
	31, 39|];
DisjunctiveConstraints =  [|1, 20, 1, 40|
	2, 28, 2, 8|
	3, 10, 3, 30|
	3, 15, 3, 35|
	3, 40, 20, 3|
	7, 17, 7, 37|
	7, 18, 7, 38|
	7, 19, 39, 7|
	7, 20, 40, 7|
	8, 22, 8, 2|
	11, 13, 11, 9|
	12, 14, 12, 10|
	17, 19, 17, 15|
	18, 20, 18, 16|
	34, 32, 34, 29|
	40, 38, 40, 35|
	23, 1, 23, 21|
	24, 1, 24, 21|
	25, 1, 25, 21|
	29, 34, 29, 30|
	35, 40, 35, 36|];
SoftAtomicConstraints =  [|
8, 4|
3, 5|
2, 6|
11, 9|
12, 10|
13, 11|
14, 12|
17, 15|
18, 16|
19, 17|
20, 18|
9, 19|
10, 20|
27, 21|
28, 23|
22, 24|
26, 25|
34, 29|
29, 30|
33, 31|
25, 32|
32, 34|
40, 35|
35, 36|
21, 38|
37, 39|
38, 40|];
DirectSuccessors =  [1,
21];
